examples/graph-sets-4-disconnected-1.param
letting n be 4
letting E be {{1,2},{2,3},{1,3}}
